p cnf 93 258
c inputs: 1 2 3 4 5 6 7
c variables for gates: 8 ... 86
c outputs: 87 88 89 90 91 92 93
c random input: -1 -2 3 -4 -5 -6 7
8 -1 -4 0
-8 1 0
-8 4 0
9 -1 -5 0
-9 1 0
-9 5 0
10 -1 -6 0
-10 1 0
-10 6 0
11 -1 -7 0
-11 1 0
-11 7 0
12 -2 -4 0
-12 2 0
-12 4 0
13 -2 -5 0
-13 2 0
-13 5 0
14 -2 -6 0
-14 2 0
-14 6 0
15 -2 -7 0
-15 2 0
-15 7 0
16 -3 -4 0
-16 3 0
-16 4 0
17 -3 -5 0
-17 3 0
-17 5 0
18 -3 -6 0
-18 3 0
-18 6 0
19 -3 -7 0
-19 3 0
-19 7 0
20 -13 -16 0
-20 13 0
-20 16 0
21 -16 13 0
-21 16 0
-21 -13 0
22 -13 16 0
-22 13 0
-22 -16 0
23 21 22 0
-23 -21 0
-23 -22 0
24 -17 -20 0
-24 17 0
-24 20 0
25 -14 -20 0
-25 14 0
-25 20 0
26 -14 -17 0
-26 14 0
-26 17 0
27 26 25 0
-27 -26 0
-27 -25 0
28 24 -27 0
-28 -24 0
-28 27 0
29 -17 14 0
-29 17 0
-29 -14 0
30 -14 17 0
-30 14 0
-30 -17 0
31 29 30 0
-31 -29 0
-31 -30 0
32 -20 -31 0
-32 20 0
-32 31 0
33 20 31 0
-33 -20 0
-33 -31 0
34 33 32 0
-34 -33 0
-34 -32 0
35 -18 28 0
-35 18 0
-35 -28 0
36 18 28 0
-36 -18 0
-36 -28 0
37 -18 -28 0
-37 18 0
-37 28 0
38 36 37 0
-38 -36 0
-38 -37 0
39 -9 12 0
-39 9 0
-39 -12 0
40 -12 9 0
-40 12 0
-40 -9 0
41 39 40 0
-41 -39 0
-41 -40 0
42 -12 -9 0
-42 12 0
-42 9 0
43 -10 -23 0
-43 10 0
-43 23 0
44 10 23 0
-44 -10 0
-44 -23 0
45 43 44 0
-45 -43 0
-45 -44 0
46 -42 -45 0
-46 42 0
-46 45 0
47 42 45 0
-47 -42 0
-47 -45 0
48 46 47 0
-48 -46 0
-48 -47 0
49 -10 -42 0
-49 10 0
-49 42 0
50 -42 23 0
-50 42 0
-50 -23 0
51 -10 23 0
-51 10 0
-51 -23 0
52 51 50 0
-52 -51 0
-52 -50 0
53 49 -52 0
-53 -49 0
-53 52 0
54 -11 -34 0
-54 11 0
-54 34 0
55 11 34 0
-55 -11 0
-55 -34 0
56 55 54 0
-56 -55 0
-56 -54 0
57 53 -56 0
-57 -53 0
-57 56 0
58 -53 56 0
-58 53 0
-58 -56 0
59 58 57 0
-59 -58 0
-59 -57 0
60 -11 53 0
-60 11 0
-60 -53 0
61 53 34 0
-61 -53 0
-61 -34 0
62 -11 34 0
-62 11 0
-62 -34 0
63 62 61 0
-63 -62 0
-63 -61 0
64 60 -63 0
-64 -60 0
-64 63 0
65 -15 -38 0
-65 15 0
-65 38 0
66 15 38 0
-66 -15 0
-66 -38 0
67 66 65 0
-67 -66 0
-67 -65 0
68 -67 64 0
-68 67 0
-68 -64 0
69 67 -64 0
-69 -67 0
-69 64 0
70 69 68 0
-70 -69 0
-70 -68 0
71 -15 64 0
-71 15 0
-71 -64 0
72 38 64 0
-72 -38 0
-72 -64 0
73 -15 38 0
-73 15 0
-73 -38 0
74 72 73 0
-74 -72 0
-74 -73 0
75 -74 71 0
-75 74 0
-75 -71 0
76 -19 35 0
-76 19 0
-76 -35 0
77 19 -35 0
-77 -19 0
-77 35 0
78 77 76 0
-78 -77 0
-78 -76 0
79 -78 75 0
-79 78 0
-79 -75 0
80 78 -75 0
-80 -78 0
-80 75 0
81 79 80 0
-81 -79 0
-81 -80 0
82 -19 75 0
-82 19 0
-82 -75 0
83 -35 75 0
-83 35 0
-83 -75 0
84 -19 -35 0
-84 19 0
-84 35 0
85 84 83 0
-85 -84 0
-85 -83 0
86 -85 82 0
-86 85 0
-86 -82 0
-87 8 0
87 -8 0
-88 -41 0
88 41 0
-89 -48 0
89 48 0
-90 -59 0
90 59 0
-91 -70 0
91 70 0
-92 -81 0
92 81 0
-93 -86 0
93 86 0
-87 0
-88 0
-89 0
-90 0
-91 0
92 0
-93 0
